(set-option :produce-models true)
(set-logic QF_UF)
(declare-fun p18() Bool)
(declare-fun p32() Bool)
(declare-fun p35() Bool)
(declare-fun p16() Bool)
(declare-fun p13() Bool)
(declare-fun p29() Bool)
(declare-fun p39() Bool)
(declare-fun p3() Bool)
(declare-fun p44() Bool)
(declare-fun p25() Bool)
(declare-fun p43() Bool)
(declare-fun p27() Bool)
(declare-fun p20() Bool)
(declare-fun p46() Bool)
(declare-fun p17() Bool)
(declare-fun p26() Bool)
(declare-fun p23() Bool)
(declare-fun p38() Bool)
(declare-fun p40() Bool)
(declare-fun p10() Bool)
(declare-fun p7() Bool)
(declare-fun p36() Bool)
(declare-fun p22() Bool)
(declare-fun p49() Bool)
(declare-fun p11() Bool)
(declare-fun p28() Bool)
(declare-fun p31() Bool)
(declare-fun p24() Bool)
(declare-fun p6() Bool)
(declare-fun p37() Bool)
(declare-fun p34() Bool)
(declare-fun p33() Bool)
(declare-fun p1() Bool)
(declare-fun p48() Bool)
(declare-fun p4() Bool)
(declare-fun p2() Bool)
(declare-fun p30() Bool)
(declare-fun p21() Bool)
(declare-fun p14() Bool)
(declare-fun p12() Bool)
(declare-fun p15() Bool)
(declare-fun p0() Bool)
(declare-fun p8() Bool)
(declare-fun p19() Bool)
(declare-fun p41() Bool)
(declare-fun p47() Bool)
(declare-fun p9() Bool)
(declare-fun p5() Bool)
(declare-fun p42() Bool)
(declare-fun p45() Bool)
(assert
(and (or p18 (not p32) p35) (or p16 p13 (not p29)) (or (not p39) p3 (not p44)) (or p25 p43 (not p27)) (or p20 (not p46) (not p17)) (or (not p16) p26 (not p23)) (or (not p38) (not p40) (not p10)) (or (not p7) (not p36) p22) (or (not p7) (not p49) (not p11)) (or (not p29) p28 p43) (or p31 p24 p11) (or (not p6) (not p16) p31) (or p18 (not p37) (not p6)) (or (not p34) p7 (not p33)) (or p35 p1 (not p48)) (or p4 p10 p25) (or (not p22) p34 p13) (or p22 p46 p29) (or (not p40) (not p2) (not p30)) (or p7 (not p18) p29) (or p21 p14 p12) (or p26 p15 (not p38)) (or (not p21) (not p2) p0) (or (not p7) p44 (not p14)) (or p22 p12 p34) (or (not p25) p7 (not p1)) (or (not p14) p18 p26) (or p18 p34 (not p36)) (or p35 (not p8) p19) (or (not p33) (not p29) p48) (or (not p19) p30 (not p34)) (or p8 p10 (not p3)) (or p20 p10 p15) (or p41 p16 (not p47)) (or p34 (not p21) (not p23)) (or p2 (not p28) p9) (or (not p11) p21 (not p27)) (or (not p6) p28 (not p5)) (or (not p9) p3 (not p39)) (or (not p17) p47 (not p26)) (or p44 p21 (not p21)) (or p32 (not p30) (not p18)) (or (not p0) (not p19) p15) (or (not p23) p23 (not p19)) (or (not p13) p2 (not p43)) (or p40 p1 p13) (or (not p6) p24 p31) (or p31 (not p20) (not p28)) (or (not p31) (not p1) (not p44)) (or (not p4) (not p38) p2) (or p49 (not p41) p39) (or p25 (not p41) p25) (or p10 (not p18) p28) (or (not p40) (not p22) p31) (or (not p39) (not p14) (not p5)) (or p15 (not p13) p10) (or (not p15) p17 p3) (or (not p13) p37 p0) (or (not p33) (not p22) p10) (or p23 p4 p41) (or (not p9) (not p44) p47) (or (not p15) p40 p4) (or (not p29) p40 p25) (or (not p2) p44 (not p20)) (or p42 p45 (not p46)) (or p17 p18 p1) (or p17 (not p1) (not p40)) (or (not p22) (not p47) (not p6)) (or p3 (not p34) (not p5)) (or p34 p37 p4) (or p32 p5 (not p19)) (or (not p35) p47 p38) (or p22 p23 (not p12)) (or p18 p10 p21) (or p41 (not p45) (not p2)) (or (not p17) (not p34) p46) (or p18 p30 (not p34)) (or (not p26) p9 (not p19)) (or (not p9) (not p47) p15) (or p6 p28 (not p19)) (or p43 (not p12) (not p11)) (or (not p10) (not p36) (not p14)) (or (not p1) (not p32) p6) (or p0 p46 (not p44)) (or (not p48) p47 (not p3)) (or (not p44) (not p47) (not p48)) (or p26 (not p15) (not p30)) (or p5 p26 (not p43)) (or (not p37) (not p38) (not p22)) (or p20 (not p45) p38) (or (not p30) (not p29) p17) (or p28 (not p34) (not p24)) (or (not p46) (not p7) (not p10)) (or (not p38) p2 p48) (or (not p12) (not p32) (not p10)) (or p49 (not p36) (not p22)) (or (not p44) (not p0) (not p34)) (or (not p14) (not p45) p3) (or p25 (not p16) p17) (or (not p22) p25 p33) (or (not p46) p22 p5) (or (not p37) p42 (not p38)) (or (not p1) p28 p8) (or p39 (not p27) (not p27)) (or (not p37) (not p4) (not p40)) (or (not p6) p13 (not p43)) (or p14 (not p34) (not p35)) (or p14 (not p1) (not p12)) (or (not p6) p15 (not p20)) (or p20 (not p40) p33) (or p36 p49 (not p10)) (or p17 (not p22) (not p48)) (or p7 (not p15) p18) (or p49 (not p43) (not p37)) (or p15 (not p10) (not p3)) (or p25 (not p33) (not p42)) (or p7 p21 p1) (or p0 (not p10) p29) (or (not p4) (not p11) (not p47)) (or p13 (not p44) p7) (or p33 p5 p18) (or (not p5) p27 (not p19)) (or (not p31) p8 p27) (or p10 p43 (not p6)) (or p13 (not p30) (not p36)) (or (not p10) p15 p18) (or p27 (not p46) p3) (or (not p39) (not p11) (not p40)) (or (not p36) (not p20) (not p30)) (or p43 (not p35) p39) (or (not p20) (not p4) (not p20)) (or (not p3) (not p17) (not p5)) (or p6 p40 p4) (or (not p40) p5 (not p41)) (or p26 p44 (not p37)) (or (not p36) p43 (not p40)) (or (not p6) (not p5) p40) (or (not p33) (not p29) p15) (or p18 (not p35) (not p11)) (or p42 p24 p5) (or p31 p12 (not p29)) (or p21 (not p37) (not p26)) (or (not p7) (not p33) (not p42)) (or (not p48) p14 (not p24)) (or p46 (not p21) p35) (or p45 p13 p26) (or p29 p34 p25) (or (not p38) p39 p20) (or p13 p28 (not p38)) (or (not p16) p29 (not p45)) (or (not p1) p44 p33) (or p34 (not p3) (not p41)) (or (not p24) (not p31) p19) (or (not p23) p38 (not p29)) (or p20 p18 p8) (or p30 p40 p39) (or p45 p4 (not p44)) (or p46 p38 p22) (or p5 (not p34) p16) (or (not p23) (not p23) (not p21)) (or (not p45) p19 p47) (or (not p33) p19 (not p8)) (or (not p22) (not p8) (not p34)) (or p2 p20 p10) (or p25 (not p42) p22) (or p8 (not p23) (not p15)) (or (not p10) (not p9) p15) (or p24 (not p6) (not p12)) (or p18 p4 p16) (or (not p17) p27 p22) (or p24 (not p17) p34) (or p35 (not p25) (not p27)) (or (not p4) p4 p43) (or (not p13) p6 p26) (or (not p22) p36 p10) (or (not p14) (not p30) (not p38)) (or (not p23) p8 (not p16)) (or p29 (not p23) p15) (or (not p40) (not p34) p38) (or (not p12) (not p11) (not p17)) (or p44 (not p16) (not p47)) (or (not p44) p3 (not p35)) (or p18 (not p30) (not p1)) (or p26 (not p5) p12) (or (not p28) p22 p39) (or p22 p7 (not p13)) (or p23 p21 p41) (or p48 (not p31) (not p37)) (or p30 p19 p35) (or (not p40) p11 p9) (or p19 (not p8) p48) (or (not p14) p40 p17) (or p11 p22 p7) (or p32 (not p5) p12) (or p41 p10 p26) (or p30 p48 p23) (or (not p29) (not p42) p25) (or p35 (not p26) (not p21)) (or p20 (not p31) (not p46)) (or p7 p29 p35) (or (not p18) (not p23) (not p27)) (or p29 p39 (not p25)) (or (not p6) (not p28) (not p36)) (or (not p8) p42 p38) (or (not p49) p8 (not p45)) (or (not p48) p26 (not p3)) (or (not p15) p20 p13) (or (not p21) (not p42) p43) (or p11 (not p33) p49) (or (not p40) p16 (not p10)))
)
(check-sat)
(get-model)
